27      4       
10      10      10      10      
0       0       0       0       0       8       2       5       6       7       8       10      12      15      
4       9       6       3       4       2       3       25      
7       5       10      7       8       7       4       9       11      14      16      24      26      
8       8       6       8       8       6       13      19      20      21      22      23      
6       5       9       8       5       6       13      16      18      19      23      24      
7       10      8       7       10      5       14      16      18      22      25      
5       3       3       9       6       4       11      16      18      21      
2       2       3       7       9       4       16      22      23      25      
7       7       10      10      10      3       17      18      21      
9       7       6       10      8       3       16      18      20      
4       10      10      9       4       2       19      20      
10      10      10      8       4       2       16      19      
9       7       7       6       5       1       17      
9       4       6       6       10      1       17      
4       10      10      7       10      1       24      
2       7       10      7       10      1       27      
7       7       9       5       9       1       27      
9       6       6       10      5       1       27      
8       9       7       10      6       1       27      
6       9       10      10      8       1       27      
5       9       6       3       10      1       27      
7       7       5       7       5       1       27      
4       8       6       6       7       1       27      
4       8       5       4       8       1       27      
7       10      10      10      9       1       27      
1       10      9       10      9       1       27      
0       0       0       0       0       0       
